p cnf 1109 3178
-51 1 0
-51 -2 0
51 -1 2 0
-52 3 0
-52 51 0
52 -3 -51 0
-53 -5 0
-53 52 0
53 5 -52 0
-54 2 0
-54 -3 0
54 -2 3 0
-55 6 0
-55 54 0
55 -6 -54 0
-56 1 0
-56 -55 0
56 -1 55 0
-57 -53 0
-57 56 0
57 53 -56 0
-58 1 0
-58 2 0
58 -1 -2 0
-59 3 0
-59 -23 0
59 -3 23 0
-60 58 0
-60 -59 0
60 -58 59 0
-61 -2 0
-61 -3 0
61 2 3 0
-62 -4 0
-62 61 0
62 4 -61 0
-63 -60 0
-63 -62 0
63 60 62 0
-64 4 0
-64 52 0
64 -4 -52 0
-65 -4 0
-65 52 0
65 4 -52 0
-66 -64 0
-66 -65 0
66 64 65 0
-67 -11 0
-67 66 0
67 11 -66 0
-68 -36 0
-68 37 0
68 36 -37 0
-69 36 0
-69 -37 0
69 -36 37 0
-70 -68 0
-70 -69 0
70 68 69 0
-71 -34 0
-71 35 0
71 34 -35 0
-72 34 0
-72 -35 0
72 -34 35 0
-73 -71 0
-73 -72 0
73 71 72 0
-74 -70 0
-74 73 0
74 70 -73 0
-75 70 0
-75 -73 0
75 -70 73 0
-76 -74 0
-76 -75 0
76 74 75 0
-77 64 0
-77 -76 0
77 -64 76 0
-78 -65 0
-78 -77 0
78 65 77 0
-79 -67 0
-79 78 0
79 67 -78 0
-80 63 0
-80 -79 0
80 -63 79 0
-81 3 0
-81 -25 0
81 -3 25 0
-82 3 0
-82 24 0
82 -3 -24 0
-83 26 0
-83 82 0
83 -26 -82 0
-84 -81 0
-84 83 0
84 81 -83 0
-85 20 0
-85 84 0
85 -20 -84 0
-86 -26 0
-86 82 0
86 26 -82 0
-87 -81 0
-87 86 0
87 81 -86 0
-88 21 0
-88 87 0
88 -21 -87 0
-89 81 0
-89 83 0
89 -81 -83 0
-90 22 0
-90 89 0
90 -22 -89 0
-91 81 0
-91 86 0
91 -81 -86 0
-92 7 0
-92 91 0
92 -7 -91 0
-93 3 0
-93 26 0
93 -3 -26 0
-94 -82 0
-94 93 0
94 82 -93 0
-95 -81 0
-95 94 0
95 81 -94 0
-96 8 0
-96 95 0
96 -8 -95 0
-97 -82 0
-97 -93 0
97 82 93 0
-98 -81 0
-98 97 0
98 81 -97 0
-99 9 0
-99 98 0
99 -9 -98 0
-100 81 0
-100 97 0
100 -81 -97 0
-101 19 0
-101 100 0
101 -19 -100 0
-102 81 0
-102 94 0
102 -81 -94 0
-103 10 0
-103 102 0
103 -10 -102 0
-104 -101 0
-104 -103 0
104 101 103 0
-105 -99 0
-105 104 0
105 99 -104 0
-106 -96 0
-106 105 0
106 96 -105 0
-107 -92 0
-107 106 0
107 92 -106 0
-108 -90 0
-108 107 0
108 90 -107 0
-109 -88 0
-109 108 0
109 88 -108 0
-110 -85 0
-110 109 0
110 85 -109 0
-111 -4 0
-111 110 0
111 4 -110 0
-112 42 0
-112 84 0
112 -42 -84 0
-113 41 0
-113 87 0
113 -41 -87 0
-114 40 0
-114 89 0
114 -40 -89 0
-115 39 0
-115 91 0
115 -39 -91 0
-116 14 0
-116 95 0
116 -14 -95 0
-117 13 0
-117 98 0
117 -13 -98 0
-118 43 0
-118 100 0
118 -43 -100 0
-119 12 0
-119 102 0
119 -12 -102 0
-120 -118 0
-120 -119 0
120 118 119 0
-121 -117 0
-121 120 0
121 117 -120 0
-122 -116 0
-122 121 0
122 116 -121 0
-123 -115 0
-123 122 0
123 115 -122 0
-124 -114 0
-124 123 0
124 114 -123 0
-125 -113 0
-125 124 0
125 113 -124 0
-126 -112 0
-126 125 0
126 112 -125 0
-127 4 0
-127 126 0
127 -4 -126 0
-128 -111 0
-128 -127 0
128 111 127 0
-129 60 0
-129 -128 0
129 -60 128 0
-130 4 0
-130 5 0
130 -4 -5 0
-131 58 0
-131 -130 0
131 -58 130 0
-132 -4 0
-132 -49 0
132 4 49 0
-133 -4 0
-133 -132 0
133 4 132 0
-134 33 0
-134 133 0
134 -33 -133 0
-135 4 0
-135 14 0
135 -4 -14 0
-136 32 0
-136 132 0
136 -32 -132 0
-137 -135 0
-137 -136 0
137 135 136 0
-138 -134 0
-138 137 0
138 134 -137 0
-139 131 0
-139 -138 0
139 -131 138 0
-140 -1 0
-140 6 0
140 1 -6 0
-141 34 0
-141 -131 0
141 -34 131 0
-142 -140 0
-142 141 0
142 140 -141 0
-143 38 0
-143 -131 0
143 -38 131 0
-144 140 0
-144 143 0
144 -140 -143 0
-145 -142 0
-145 -144 0
145 142 144 0
-146 -139 0
-146 145 0
146 139 -145 0
-147 1 0
-147 3 0
147 -1 -3 0
-148 4 0
-148 147 0
148 -4 -147 0
-149 -58 0
-149 -148 0
149 58 148 0
-150 2 0
-150 3 0
150 -2 -3 0
-151 -1 0
-151 150 0
151 1 -150 0
-152 149 0
-152 -151 0
152 -149 151 0
-153 -1 0
-153 4 0
153 1 -4 0
-154 11 0
-154 -153 0
154 -11 153 0
-155 152 0
-155 154 0
155 -152 -154 0
-156 -3 0
-156 4 0
156 3 -4 0
-157 -3 0
-157 -156 0
157 3 156 0
-158 9 0
-158 157 0
158 -9 -157 0
-159 -11 0
-159 -12 0
159 11 12 0
-160 -13 0
-160 159 0
160 13 -159 0
-161 3 0
-161 -160 0
161 -3 160 0
-162 12 0
-162 156 0
162 -12 -156 0
-163 -161 0
-163 -162 0
163 161 162 0
-164 -158 0
-164 163 0
164 158 -163 0
-165 -149 0
-165 -164 0
165 149 164 0
-166 -11 0
-166 151 0
166 11 -151 0
-167 -165 0
-167 -166 0
167 165 166 0
-168 -155 0
-168 167 0
168 155 -167 0
-169 23 0
-169 -168 0
169 -23 168 0
-170 -146 0
-170 169 0
170 146 -169 0
-171 24 0
-171 -168 0
171 -24 168 0
-172 146 0
-172 171 0
172 -146 -171 0
-173 -170 0
-173 -172 0
173 170 172 0
-174 25 0
-174 168 0
174 -25 -168 0
-175 146 0
-175 174 0
175 -146 -174 0
-176 26 0
-176 168 0
176 -26 -168 0
-177 -146 0
-177 176 0
177 146 -176 0
-178 -175 0
-178 -177 0
178 175 177 0
-179 168 0
-179 178 0
179 -168 -178 0
-180 173 0
-180 -179 0
180 -173 179 0
-181 -1 0
-181 2 0
181 1 -2 0
-182 -3 0
-182 181 0
182 3 -181 0
-183 27 0
-183 182 0
183 -27 -182 0
-184 48 0
-184 183 0
184 -48 -183 0
-185 -168 0
-185 184 0
185 168 -184 0
-186 -180 0
-186 185 0
186 180 -185 0
-187 180 0
-187 -185 0
187 -180 185 0
-188 -186 0
-188 -187 0
188 186 187 0
-189 62 0
-189 188 0
189 -62 -188 0
-190 -129 0
-190 -189 0
190 129 189 0
-191 -80 0
-191 190 0
191 80 -190 0
-192 57 0
-192 191 0
192 -57 -191 0
-193 36 0
-193 133 0
193 -36 -133 0
-194 4 0
-194 41 0
194 -4 -41 0
-195 35 0
-195 132 0
195 -35 -132 0
-196 -194 0
-196 -195 0
196 194 195 0
-197 -193 0
-197 196 0
197 193 -196 0
-198 131 0
-198 -197 0
198 -131 197 0
-199 -5 0
-199 140 0
199 5 -140 0
-200 143 0
-200 199 0
200 -143 -199 0
-201 37 0
-201 -131 0
201 -37 131 0
-202 -199 0
-202 201 0
202 199 -201 0
-203 -200 0
-203 -202 0
203 200 202 0
-204 -198 0
-204 203 0
204 198 -203 0
-205 14 0
-205 -153 0
205 -14 153 0
-206 152 0
-206 205 0
206 -152 -205 0
-207 12 0
-207 157 0
207 -12 -157 0
-208 3 0
-208 14 0
208 -3 -14 0
-209 39 0
-209 156 0
209 -39 -156 0
-210 -208 0
-210 -209 0
210 208 209 0
-211 -207 0
-211 210 0
211 207 -210 0
-212 -149 0
-212 -211 0
212 149 211 0
-213 -14 0
-213 151 0
213 14 -151 0
-214 -212 0
-214 -213 0
214 212 213 0
-215 -206 0
-215 214 0
215 206 -214 0
-216 23 0
-216 -215 0
216 -23 215 0
-217 -204 0
-217 216 0
217 204 -216 0
-218 24 0
-218 -215 0
218 -24 215 0
-219 204 0
-219 218 0
219 -204 -218 0
-220 -217 0
-220 -219 0
220 217 219 0
-221 25 0
-221 215 0
221 -25 -215 0
-222 204 0
-222 221 0
222 -204 -221 0
-223 26 0
-223 215 0
223 -26 -215 0
-224 -204 0
-224 223 0
224 204 -223 0
-225 -222 0
-225 -224 0
225 222 224 0
-226 215 0
-226 225 0
226 -215 -225 0
-227 220 0
-227 -226 0
227 -220 226 0
-228 184 0
-228 -215 0
228 -184 215 0
-229 -227 0
-229 228 0
229 227 -228 0
-230 227 0
-230 -228 0
230 -227 228 0
-231 -229 0
-231 -230 0
231 229 230 0
-232 35 0
-232 133 0
232 -35 -133 0
-233 4 0
-233 40 0
233 -4 -40 0
-234 34 0
-234 132 0
234 -34 -132 0
-235 -233 0
-235 -234 0
235 233 234 0
-236 -232 0
-236 235 0
236 232 -235 0
-237 131 0
-237 -236 0
237 -131 236 0
-238 36 0
-238 -131 0
238 -36 131 0
-239 -199 0
-239 238 0
239 199 -238 0
-240 -200 0
-240 -239 0
240 200 239 0
-241 -237 0
-241 240 0
241 237 -240 0
-242 13 0
-242 -153 0
242 -13 153 0
-243 152 0
-243 242 0
243 -152 -242 0
-244 11 0
-244 157 0
244 -11 -157 0
-245 3 0
-245 -13 0
245 -3 13 0
-246 14 0
-246 156 0
246 -14 -156 0
-247 -245 0
-247 -246 0
247 245 246 0
-248 -244 0
-248 247 0
248 244 -247 0
-249 -149 0
-249 -248 0
249 149 248 0
-250 -13 0
-250 151 0
250 13 -151 0
-251 -249 0
-251 -250 0
251 249 250 0
-252 -243 0
-252 251 0
252 243 -251 0
-253 23 0
-253 -252 0
253 -23 252 0
-254 -241 0
-254 253 0
254 241 -253 0
-255 24 0
-255 -252 0
255 -24 252 0
-256 241 0
-256 255 0
256 -241 -255 0
-257 -254 0
-257 -256 0
257 254 256 0
-258 25 0
-258 252 0
258 -25 -252 0
-259 241 0
-259 258 0
259 -241 -258 0
-260 26 0
-260 252 0
260 -26 -252 0
-261 -241 0
-261 260 0
261 241 -260 0
-262 -259 0
-262 -261 0
262 259 261 0
-263 252 0
-263 262 0
263 -252 -262 0
-264 257 0
-264 -263 0
264 -257 263 0
-265 184 0
-265 -252 0
265 -184 252 0
-266 -264 0
-266 265 0
266 264 -265 0
-267 264 0
-267 -265 0
267 -264 265 0
-268 -266 0
-268 -267 0
268 266 267 0
-269 -231 0
-269 -268 0
269 231 268 0
-270 34 0
-270 133 0
270 -34 -133 0
-271 4 0
-271 39 0
271 -4 -39 0
-272 33 0
-272 132 0
272 -33 -132 0
-273 -271 0
-273 -272 0
273 271 272 0
-274 -270 0
-274 273 0
274 270 -273 0
-275 131 0
-275 -274 0
275 -131 274 0
-276 35 0
-276 -131 0
276 -35 131 0
-277 -199 0
-277 276 0
277 199 -276 0
-278 -200 0
-278 -277 0
278 200 277 0
-279 -275 0
-279 278 0
279 275 -278 0
-280 12 0
-280 -153 0
280 -12 153 0
-281 152 0
-281 280 0
281 -152 -280 0
-282 10 0
-282 157 0
282 -10 -157 0
-283 -12 0
-283 13 0
283 12 -13 0
-284 12 0
-284 -13 0
284 -12 13 0
-285 -283 0
-285 -284 0
285 283 284 0
-286 3 0
-286 285 0
286 -3 -285 0
-287 13 0
-287 156 0
287 -13 -156 0
-288 -286 0
-288 -287 0
288 286 287 0
-289 -282 0
-289 288 0
289 282 -288 0
-290 -149 0
-290 -289 0
290 149 289 0
-291 -12 0
-291 151 0
291 12 -151 0
-292 -290 0
-292 -291 0
292 290 291 0
-293 -281 0
-293 292 0
293 281 -292 0
-294 23 0
-294 -293 0
294 -23 293 0
-295 -279 0
-295 294 0
295 279 -294 0
-296 24 0
-296 -293 0
296 -24 293 0
-297 279 0
-297 296 0
297 -279 -296 0
-298 -295 0
-298 -297 0
298 295 297 0
-299 25 0
-299 293 0
299 -25 -293 0
-300 279 0
-300 299 0
300 -279 -299 0
-301 26 0
-301 293 0
301 -26 -293 0
-302 -279 0
-302 301 0
302 279 -301 0
-303 -300 0
-303 -302 0
303 300 302 0
-304 293 0
-304 303 0
304 -293 -303 0
-305 298 0
-305 -304 0
305 -298 304 0
-306 184 0
-306 -293 0
306 -184 293 0
-307 -305 0
-307 306 0
307 305 -306 0
-308 305 0
-308 -306 0
308 -305 306 0
-309 -307 0
-309 -308 0
309 307 308 0
-310 269 0
-310 -309 0
310 -269 309 0
-311 47 0
-311 310 0
311 -47 -310 0
-312 -184 0
-312 -220 0
312 184 220 0
-313 -268 0
-313 -309 0
313 268 309 0
-314 312 0
-314 313 0
314 -312 -313 0
-315 -184 0
-315 -298 0
315 184 298 0
-316 -184 0
-316 -257 0
316 184 257 0
-317 -309 0
-317 316 0
317 309 -316 0
-318 -315 0
-318 -317 0
318 315 317 0
-319 -314 0
-319 318 0
319 314 -318 0
-320 -188 0
-320 319 0
320 188 -319 0
-321 188 0
-321 -319 0
321 -188 319 0
-322 -320 0
-322 -321 0
322 320 321 0
-323 311 0
-323 322 0
323 -311 -322 0
-324 -311 0
-324 -322 0
324 311 322 0
-325 -323 0
-325 -324 0
325 323 324 0
-326 -56 0
-326 -325 0
326 56 325 0
-327 -220 0
-327 305 0
327 220 -305 0
-328 264 0
-328 327 0
328 -264 -327 0
-329 180 0
-329 328 0
329 -180 -328 0
-330 180 0
-330 305 0
330 -180 -305 0
-331 -257 0
-331 330 0
331 257 -330 0
-332 180 0
-332 -298 0
332 -180 298 0
-333 173 0
-333 -332 0
333 -173 332 0
-334 -331 0
-334 333 0
334 331 -333 0
-335 -329 0
-335 334 0
335 329 -334 0
-336 -184 0
-336 -335 0
336 184 335 0
-337 -146 0
-337 -279 0
337 146 279 0
-338 -241 0
-338 337 0
338 241 -337 0
-339 -204 0
-339 338 0
339 204 -338 0
-340 -24 0
-340 339 0
340 24 -339 0
-341 146 0
-341 279 0
341 -146 -279 0
-342 241 0
-342 341 0
342 -241 -341 0
-343 204 0
-343 342 0
343 -204 -342 0
-344 24 0
-344 343 0
344 -24 -343 0
-345 -340 0
-345 -344 0
345 340 344 0
-346 184 0
-346 -345 0
346 -184 345 0
-347 264 0
-347 330 0
347 -264 -330 0
-348 227 0
-348 347 0
348 -227 -347 0
-349 -184 0
-349 348 0
349 184 -348 0
-350 -346 0
-350 -349 0
350 346 349 0
-351 47 0
-351 -350 0
351 -47 350 0
-352 -336 0
-352 351 0
352 336 -351 0
-353 -336 0
-353 -352 0
353 336 352 0
-354 -325 0
-354 -353 0
354 325 353 0
-355 47 0
-355 -231 0
355 -47 231 0
-356 -268 0
-356 -312 0
356 268 312 0
-357 268 0
-357 312 0
357 -268 -312 0
-358 -356 0
-358 -357 0
358 356 357 0
-359 355 0
-359 358 0
359 -355 -358 0
-360 -355 0
-360 -358 0
360 355 358 0
-361 -359 0
-361 -360 0
361 359 360 0
-362 47 0
-362 269 0
362 -47 -269 0
-363 -268 0
-363 312 0
363 268 -312 0
-364 -316 0
-364 -363 0
364 316 363 0
-365 -309 0
-365 364 0
365 309 -364 0
-366 309 0
-366 -364 0
366 -309 364 0
-367 -365 0
-367 -366 0
367 365 366 0
-368 362 0
-368 367 0
368 -362 -367 0
-369 -362 0
-369 -367 0
369 362 367 0
-370 -368 0
-370 -369 0
370 368 369 0
-371 -361 0
-371 -370 0
371 361 370 0
-372 -325 0
-372 371 0
372 325 -371 0
-373 353 0
-373 372 0
373 -353 -372 0
-374 -354 0
-374 -373 0
374 354 373 0
-375 53 0
-375 -374 0
375 -53 374 0
-376 -326 0
-376 -375 0
376 326 375 0
-377 -192 0
-377 376 0
377 192 -376 0
-378 -12 0
-378 66 0
378 12 -66 0
-379 13 0
-379 -14 0
379 -13 14 0
-380 -13 0
-380 14 0
380 13 -14 0
-381 -379 0
-381 -380 0
381 379 380 0
-382 11 0
-382 -12 0
382 -11 12 0
-383 -11 0
-383 12 0
383 11 -12 0
-384 -382 0
-384 -383 0
384 382 383 0
-385 -381 0
-385 384 0
385 381 -384 0
-386 381 0
-386 -384 0
386 -381 384 0
-387 -385 0
-387 -386 0
387 385 386 0
-388 64 0
-388 -387 0
388 -64 387 0
-389 -65 0
-389 -388 0
389 65 388 0
-390 -378 0
-390 389 0
390 378 -389 0
-391 63 0
-391 -390 0
391 -63 390 0
-392 21 0
-392 84 0
392 -21 -84 0
-393 22 0
-393 87 0
393 -22 -87 0
-394 7 0
-394 89 0
394 -7 -89 0
-395 8 0
-395 91 0
395 -8 -91 0
-396 9 0
-396 95 0
396 -9 -95 0
-397 10 0
-397 98 0
397 -10 -98 0
-398 11 0
-398 102 0
398 -11 -102 0
-399 20 0
-399 100 0
399 -20 -100 0
-400 -398 0
-400 -399 0
400 398 399 0
-401 -397 0
-401 400 0
401 397 -400 0
-402 -396 0
-402 401 0
402 396 -401 0
-403 -395 0
-403 402 0
403 395 -402 0
-404 -394 0
-404 403 0
404 394 -403 0
-405 -393 0
-405 404 0
405 393 -404 0
-406 -392 0
-406 405 0
406 392 -405 0
-407 -4 0
-407 406 0
407 4 -406 0
-408 43 0
-408 84 0
408 -43 -84 0
-409 42 0
-409 87 0
409 -42 -87 0
-410 41 0
-410 89 0
410 -41 -89 0
-411 40 0
-411 91 0
411 -40 -91 0
-412 39 0
-412 95 0
412 -39 -95 0
-413 14 0
-413 98 0
413 -14 -98 0
-414 13 0
-414 102 0
414 -13 -102 0
-415 44 0
-415 100 0
415 -44 -100 0
-416 -414 0
-416 -415 0
416 414 415 0
-417 -413 0
-417 416 0
417 413 -416 0
-418 -412 0
-418 417 0
418 412 -417 0
-419 -411 0
-419 418 0
419 411 -418 0
-420 -410 0
-420 419 0
420 410 -419 0
-421 -409 0
-421 420 0
421 409 -420 0
-422 -408 0
-422 421 0
422 408 -421 0
-423 4 0
-423 422 0
423 -4 -422 0
-424 -407 0
-424 -423 0
424 407 423 0
-425 60 0
-425 -424 0
425 -60 424 0
-426 62 0
-426 309 0
426 -62 -309 0
-427 -425 0
-427 -426 0
427 425 426 0
-428 -391 0
-428 427 0
428 391 -427 0
-429 57 0
-429 428 0
429 -57 -428 0
-430 -56 0
-430 -370 0
430 56 370 0
-431 353 0
-431 -361 0
431 -353 361 0
-432 370 0
-432 431 0
432 -370 -431 0
-433 -370 0
-433 -431 0
433 370 431 0
-434 -432 0
-434 -433 0
434 432 433 0
-435 53 0
-435 -434 0
435 -53 434 0
-436 -430 0
-436 -435 0
436 430 435 0
-437 -429 0
-437 436 0
437 429 -436 0
-438 -377 0
-438 437 0
438 377 -437 0
-439 377 0
-439 -437 0
439 -377 437 0
-440 -438 0
-440 -439 0
440 438 439 0
-441 -14 0
-441 66 0
441 14 -66 0
-442 9 0
-442 -10 0
442 -9 10 0
-443 -9 0
-443 10 0
443 9 -10 0
-444 -442 0
-444 -443 0
444 442 443 0
-445 -7 0
-445 -8 0
445 7 8 0
-446 7 0
-446 8 0
446 -7 -8 0
-447 -445 0
-447 -446 0
447 445 446 0
-448 -444 0
-448 447 0
448 444 -447 0
-449 444 0
-449 -447 0
449 -444 447 0
-450 -448 0
-450 -449 0
450 448 449 0
-451 6 0
-451 -450 0
451 -6 450 0
-452 -8 0
-452 -9 0
452 8 9 0
-453 7 0
-453 -452 0
453 -7 452 0
-454 -6 0
-454 453 0
454 6 -453 0
-455 -451 0
-455 -454 0
455 451 454 0
-456 64 0
-456 455 0
456 -64 -455 0
-457 -12 0
-457 -13 0
457 12 13 0
-458 11 0
-458 -457 0
458 -11 457 0
-459 65 0
-459 -458 0
459 -65 458 0
-460 -456 0
-460 -459 0
460 456 459 0
-461 -441 0
-461 460 0
461 441 -460 0
-462 63 0
-462 -461 0
462 -63 461 0
-463 7 0
-463 84 0
463 -7 -84 0
-464 8 0
-464 87 0
464 -8 -87 0
-465 9 0
-465 89 0
465 -9 -89 0
-466 10 0
-466 91 0
466 -10 -91 0
-467 11 0
-467 95 0
467 -11 -95 0
-468 12 0
-468 98 0
468 -12 -98 0
-469 22 0
-469 100 0
469 -22 -100 0
-470 -414 0
-470 -469 0
470 414 469 0
-471 -468 0
-471 470 0
471 468 -470 0
-472 -467 0
-472 471 0
472 467 -471 0
-473 -466 0
-473 472 0
473 466 -472 0
-474 -465 0
-474 473 0
474 465 -473 0
-475 -464 0
-475 474 0
475 464 -474 0
-476 -463 0
-476 475 0
476 463 -475 0
-477 -4 0
-477 476 0
477 4 -476 0
-478 45 0
-478 84 0
478 -45 -84 0
-479 44 0
-479 87 0
479 -44 -87 0
-480 43 0
-480 89 0
480 -43 -89 0
-481 42 0
-481 91 0
481 -42 -91 0
-482 41 0
-482 95 0
482 -41 -95 0
-483 40 0
-483 98 0
483 -40 -98 0
-484 46 0
-484 100 0
484 -46 -100 0
-485 39 0
-485 102 0
485 -39 -102 0
-486 -484 0
-486 -485 0
486 484 485 0
-487 -483 0
-487 486 0
487 483 -486 0
-488 -482 0
-488 487 0
488 482 -487 0
-489 -481 0
-489 488 0
489 481 -488 0
-490 -480 0
-490 489 0
490 480 -489 0
-491 -479 0
-491 490 0
491 479 -490 0
-492 -478 0
-492 491 0
492 478 -491 0
-493 4 0
-493 492 0
493 -4 -492 0
-494 -477 0
-494 -493 0
494 477 493 0
-495 60 0
-495 -494 0
495 -60 494 0
-496 62 0
-496 231 0
496 -62 -231 0
-497 -495 0
-497 -496 0
497 495 496 0
-498 -462 0
-498 497 0
498 462 -497 0
-499 57 0
-499 498 0
499 -57 -498 0
-500 -47 0
-500 -231 0
500 47 231 0
-501 47 0
-501 231 0
501 -47 -231 0
-502 -500 0
-502 -501 0
502 500 501 0
-503 -56 0
-503 -502 0
503 56 502 0
-504 53 0
-504 -502 0
504 -53 502 0
-505 -503 0
-505 -504 0
505 503 504 0
-506 -499 0
-506 505 0
506 499 -505 0
-507 -13 0
-507 66 0
507 13 -66 0
-508 -32 0
-508 33 0
508 32 -33 0
-509 32 0
-509 -33 0
509 -32 33 0
-510 -508 0
-510 -509 0
510 508 509 0
-511 -30 0
-511 31 0
511 30 -31 0
-512 30 0
-512 -31 0
512 -30 31 0
-513 -511 0
-513 -512 0
513 511 512 0
-514 -510 0
-514 513 0
514 510 -513 0
-515 510 0
-515 -513 0
515 -510 513 0
-516 -514 0
-516 -515 0
516 514 515 0
-517 6 0
-517 516 0
517 -6 -516 0
-518 -14 0
-518 160 0
518 14 -160 0
-519 9 0
-519 10 0
519 -9 -10 0
-520 518 0
-520 -519 0
520 -518 519 0
-521 -7 0
-521 520 0
521 7 -520 0
-522 8 0
-522 521 0
522 -8 -521 0
-523 -6 0
-523 522 0
523 6 -522 0
-524 -517 0
-524 -523 0
524 517 523 0
-525 64 0
-525 524 0
525 -64 -524 0
-526 65 0
-526 -518 0
526 -65 518 0
-527 -525 0
-527 -526 0
527 525 526 0
-528 -507 0
-528 527 0
528 507 -527 0
-529 63 0
-529 -528 0
529 -63 528 0
-530 22 0
-530 84 0
530 -22 -84 0
-531 7 0
-531 87 0
531 -7 -87 0
-532 8 0
-532 89 0
532 -8 -89 0
-533 9 0
-533 91 0
533 -9 -91 0
-534 10 0
-534 95 0
534 -10 -95 0
-535 11 0
-535 98 0
535 -11 -98 0
-536 21 0
-536 100 0
536 -21 -100 0
-537 -119 0
-537 -536 0
537 119 536 0
-538 -535 0
-538 537 0
538 535 -537 0
-539 -534 0
-539 538 0
539 534 -538 0
-540 -533 0
-540 539 0
540 533 -539 0
-541 -532 0
-541 540 0
541 532 -540 0
-542 -531 0
-542 541 0
542 531 -541 0
-543 -530 0
-543 542 0
543 530 -542 0
-544 -4 0
-544 543 0
544 4 -543 0
-545 44 0
-545 84 0
545 -44 -84 0
-546 43 0
-546 87 0
546 -43 -87 0
-547 42 0
-547 89 0
547 -42 -89 0
-548 41 0
-548 91 0
548 -41 -91 0
-549 40 0
-549 95 0
549 -40 -95 0
-550 39 0
-550 98 0
550 -39 -98 0
-551 45 0
-551 100 0
551 -45 -100 0
-552 14 0
-552 102 0
552 -14 -102 0
-553 -551 0
-553 -552 0
553 551 552 0
-554 -550 0
-554 553 0
554 550 -553 0
-555 -549 0
-555 554 0
555 549 -554 0
-556 -548 0
-556 555 0
556 548 -555 0
-557 -547 0
-557 556 0
557 547 -556 0
-558 -546 0
-558 557 0
558 546 -557 0
-559 -545 0
-559 558 0
559 545 -558 0
-560 4 0
-560 559 0
560 -4 -559 0
-561 -544 0
-561 -560 0
561 544 560 0
-562 60 0
-562 -561 0
562 -60 561 0
-563 62 0
-563 268 0
563 -62 -268 0
-564 -562 0
-564 -563 0
564 562 563 0
-565 -529 0
-565 564 0
565 529 -564 0
-566 57 0
-566 565 0
566 -57 -565 0
-567 -56 0
-567 -361 0
567 56 361 0
-568 -353 0
-568 361 0
568 353 -361 0
-569 -431 0
-569 -568 0
569 431 568 0
-570 53 0
-570 569 0
570 -53 -569 0
-571 -567 0
-571 -570 0
571 567 570 0
-572 -566 0
-572 571 0
572 566 -571 0
-573 506 0
-573 -572 0
573 -506 572 0
-574 -506 0
-574 572 0
574 506 -572 0
-575 -573 0
-575 -574 0
575 573 574 0
-576 -440 0
-576 575 0
576 440 -575 0
-577 440 0
-577 -575 0
577 -440 575 0
-578 -576 0
-578 -577 0
578 576 577 0
-579 -2 0
-579 -4 0
579 2 4 0
-580 -60 0
-580 -579 0
580 60 579 0
-581 -10 0
-581 580 0
581 10 -580 0
-582 19 0
-582 84 0
582 -19 -84 0
-583 20 0
-583 87 0
583 -20 -87 0
-584 21 0
-584 89 0
584 -21 -89 0
-585 22 0
-585 91 0
585 -22 -91 0
-586 7 0
-586 95 0
586 -7 -95 0
-587 8 0
-587 98 0
587 -8 -98 0
-588 18 0
-588 100 0
588 -18 -100 0
-589 9 0
-589 102 0
589 -9 -102 0
-590 -588 0
-590 -589 0
590 588 589 0
-591 -587 0
-591 590 0
591 587 -590 0
-592 -586 0
-592 591 0
592 586 -591 0
-593 -585 0
-593 592 0
593 585 -592 0
-594 -584 0
-594 593 0
594 584 -593 0
-595 -583 0
-595 594 0
595 583 -594 0
-596 -582 0
-596 595 0
596 582 -595 0
-597 -4 0
-597 596 0
597 4 -596 0
-598 41 0
-598 84 0
598 -41 -84 0
-599 40 0
-599 87 0
599 -40 -87 0
-600 39 0
-600 89 0
600 -39 -89 0
-601 14 0
-601 91 0
601 -14 -91 0
-602 13 0
-602 95 0
602 -13 -95 0
-603 42 0
-603 100 0
603 -42 -100 0
-604 -398 0
-604 -603 0
604 398 603 0
-605 -468 0
-605 604 0
605 468 -604 0
-606 -602 0
-606 605 0
606 602 -605 0
-607 -601 0
-607 606 0
607 601 -606 0
-608 -600 0
-608 607 0
608 600 -607 0
-609 -599 0
-609 608 0
609 599 -608 0
-610 -598 0
-610 609 0
610 598 -609 0
-611 4 0
-611 610 0
611 -4 -610 0
-612 -597 0
-612 -611 0
612 597 611 0
-613 60 0
-613 -612 0
613 -60 612 0
-614 32 0
-614 133 0
614 -32 -133 0
-615 4 0
-615 13 0
615 -4 -13 0
-616 31 0
-616 132 0
616 -31 -132 0
-617 -615 0
-617 -616 0
617 615 616 0
-618 -614 0
-618 617 0
618 614 -617 0
-619 131 0
-619 -618 0
619 -131 618 0
-620 -5 0
-620 -6 0
620 5 6 0
-621 -1 0
-621 -620 0
621 1 620 0
-622 143 0
-622 621 0
622 -143 -621 0
-623 33 0
-623 -131 0
623 -33 131 0
-624 -621 0
-624 623 0
624 621 -623 0
-625 -622 0
-625 -624 0
625 622 624 0
-626 -619 0
-626 625 0
626 619 -625 0
-627 -1 0
-627 3 0
627 1 -3 0
-628 10 0
-628 -627 0
628 -10 627 0
-629 152 0
-629 628 0
629 -152 -628 0
-630 8 0
-630 157 0
630 -8 -157 0
-631 3 0
-631 10 0
631 -3 -10 0
-632 11 0
-632 156 0
632 -11 -156 0
-633 -631 0
-633 -632 0
633 631 632 0
-634 -630 0
-634 633 0
634 630 -633 0
-635 -149 0
-635 -634 0
635 149 634 0
-636 -10 0
-636 151 0
636 10 -151 0
-637 -635 0
-637 -636 0
637 635 636 0
-638 -629 0
-638 637 0
638 629 -637 0
-639 23 0
-639 -638 0
639 -23 638 0
-640 -626 0
-640 639 0
640 626 -639 0
-641 24 0
-641 -638 0
641 -24 638 0
-642 626 0
-642 641 0
642 -626 -641 0
-643 -640 0
-643 -642 0
643 640 642 0
-644 25 0
-644 638 0
644 -25 -638 0
-645 626 0
-645 644 0
645 -626 -644 0
-646 26 0
-646 638 0
646 -26 -638 0
-647 -626 0
-647 646 0
647 626 -646 0
-648 -645 0
-648 -647 0
648 645 647 0
-649 638 0
-649 648 0
649 -638 -648 0
-650 643 0
-650 -649 0
650 -643 649 0
-651 184 0
-651 -638 0
651 -184 638 0
-652 -650 0
-652 651 0
652 650 -651 0
-653 650 0
-653 -651 0
653 -650 651 0
-654 -652 0
-654 -653 0
654 652 653 0
-655 579 0
-655 654 0
655 -579 -654 0
-656 -613 0
-656 -655 0
656 613 655 0
-657 -581 0
-657 656 0
657 581 -656 0
-658 57 0
-658 657 0
658 -57 -657 0
-659 -336 0
-659 -654 0
659 336 654 0
-660 336 0
-660 654 0
660 -336 -654 0
-661 -659 0
-661 -660 0
661 659 660 0
-662 351 0
-662 661 0
662 -351 -661 0
-663 -351 0
-663 -661 0
663 351 661 0
-664 -662 0
-664 -663 0
664 662 663 0
-665 -56 0
-665 -664 0
665 56 664 0
-666 53 0
-666 -664 0
666 -53 664 0
-667 -665 0
-667 -666 0
667 665 666 0
-668 -658 0
-668 667 0
668 658 -667 0
-669 -9 0
-669 580 0
669 9 -580 0
-670 18 0
-670 84 0
670 -18 -84 0
-671 19 0
-671 87 0
671 -19 -87 0
-672 20 0
-672 89 0
672 -20 -89 0
-673 21 0
-673 91 0
673 -21 -91 0
-674 22 0
-674 95 0
674 -22 -95 0
-675 7 0
-675 98 0
675 -7 -98 0
-676 8 0
-676 102 0
676 -8 -102 0
-677 17 0
-677 100 0
677 -17 -100 0
-678 -676 0
-678 -677 0
678 676 677 0
-679 -675 0
-679 678 0
679 675 -678 0
-680 -674 0
-680 679 0
680 674 -679 0
-681 -673 0
-681 680 0
681 673 -680 0
-682 -672 0
-682 681 0
682 672 -681 0
-683 -671 0
-683 682 0
683 671 -682 0
-684 -670 0
-684 683 0
684 670 -683 0
-685 -4 0
-685 684 0
685 4 -684 0
-686 40 0
-686 84 0
686 -40 -84 0
-687 39 0
-687 87 0
687 -39 -87 0
-688 14 0
-688 89 0
688 -14 -89 0
-689 13 0
-689 91 0
689 -13 -91 0
-690 12 0
-690 95 0
690 -12 -95 0
-691 41 0
-691 100 0
691 -41 -100 0
-692 -103 0
-692 -691 0
692 103 691 0
-693 -535 0
-693 692 0
693 535 -692 0
-694 -690 0
-694 693 0
694 690 -693 0
-695 -689 0
-695 694 0
695 689 -694 0
-696 -688 0
-696 695 0
696 688 -695 0
-697 -687 0
-697 696 0
697 687 -696 0
-698 -686 0
-698 697 0
698 686 -697 0
-699 4 0
-699 698 0
699 -4 -698 0
-700 -685 0
-700 -699 0
700 685 699 0
-701 60 0
-701 -700 0
701 -60 700 0
-702 31 0
-702 133 0
702 -31 -133 0
-703 4 0
-703 12 0
703 -4 -12 0
-704 30 0
-704 132 0
704 -30 -132 0
-705 -703 0
-705 -704 0
705 703 704 0
-706 -702 0
-706 705 0
706 702 -705 0
-707 131 0
-707 -706 0
707 -131 706 0
-708 32 0
-708 -131 0
708 -32 131 0
-709 -621 0
-709 708 0
709 621 -708 0
-710 -622 0
-710 -709 0
710 622 709 0
-711 -707 0
-711 710 0
711 707 -710 0
-712 9 0
-712 -627 0
712 -9 627 0
-713 152 0
-713 712 0
713 -152 -712 0
-714 7 0
-714 157 0
714 -7 -157 0
-715 3 0
-715 -9 0
715 -3 9 0
-716 10 0
-716 156 0
716 -10 -156 0
-717 -715 0
-717 -716 0
717 715 716 0
-718 -714 0
-718 717 0
718 714 -717 0
-719 -149 0
-719 -718 0
719 149 718 0
-720 -9 0
-720 151 0
720 9 -151 0
-721 -719 0
-721 -720 0
721 719 720 0
-722 -713 0
-722 721 0
722 713 -721 0
-723 23 0
-723 -722 0
723 -23 722 0
-724 -711 0
-724 723 0
724 711 -723 0
-725 24 0
-725 -722 0
725 -24 722 0
-726 711 0
-726 725 0
726 -711 -725 0
-727 -724 0
-727 -726 0
727 724 726 0
-728 25 0
-728 722 0
728 -25 -722 0
-729 711 0
-729 728 0
729 -711 -728 0
-730 26 0
-730 722 0
730 -26 -722 0
-731 -711 0
-731 730 0
731 711 -730 0
-732 -729 0
-732 -731 0
732 729 731 0
-733 722 0
-733 732 0
733 -722 -732 0
-734 727 0
-734 -733 0
734 -727 733 0
-735 184 0
-735 -722 0
735 -184 722 0
-736 -734 0
-736 735 0
736 734 -735 0
-737 734 0
-737 -735 0
737 -734 735 0
-738 -736 0
-738 -737 0
738 736 737 0
-739 579 0
-739 738 0
739 -579 -738 0
-740 -701 0
-740 -739 0
740 701 739 0
-741 -669 0
-741 740 0
741 669 -740 0
-742 57 0
-742 741 0
742 -57 -741 0
-743 -350 0
-743 -654 0
743 350 654 0
-744 47 0
-744 743 0
744 -47 -743 0
-745 -184 0
-745 -643 0
745 184 643 0
-746 336 0
-746 -654 0
746 -336 654 0
-747 -745 0
-747 -746 0
747 745 746 0
-748 -738 0
-748 747 0
748 738 -747 0
-749 738 0
-749 -747 0
749 -738 747 0
-750 -748 0
-750 -749 0
750 748 749 0
-751 744 0
-751 750 0
751 -744 -750 0
-752 -744 0
-752 -750 0
752 744 750 0
-753 -751 0
-753 -752 0
753 751 752 0
-754 -56 0
-754 -753 0
754 56 753 0
-755 29 0
-755 133 0
755 -29 -133 0
-756 4 0
-756 10 0
756 -4 -10 0
-757 28 0
-757 132 0
757 -28 -132 0
-758 -756 0
-758 -757 0
758 756 757 0
-759 -755 0
-759 758 0
759 755 -758 0
-760 131 0
-760 -759 0
760 -131 759 0
-761 30 0
-761 -131 0
761 -30 131 0
-762 -621 0
-762 761 0
762 621 -761 0
-763 -622 0
-763 -762 0
763 622 762 0
-764 -760 0
-764 763 0
764 760 -763 0
-765 7 0
-765 -627 0
765 -7 627 0
-766 152 0
-766 765 0
766 -152 -765 0
-767 21 0
-767 157 0
767 -21 -157 0
-768 -9 0
-768 445 0
768 9 -445 0
-769 3 0
-769 -768 0
769 -3 768 0
-770 8 0
-770 156 0
770 -8 -156 0
-771 -769 0
-771 -770 0
771 769 770 0
-772 -767 0
-772 771 0
772 767 -771 0
-773 -149 0
-773 -772 0
773 149 772 0
-774 -7 0
-774 151 0
774 7 -151 0
-775 -773 0
-775 -774 0
775 773 774 0
-776 -766 0
-776 775 0
776 766 -775 0
-777 23 0
-777 -776 0
777 -23 776 0
-778 -764 0
-778 777 0
778 764 -777 0
-779 24 0
-779 -776 0
779 -24 776 0
-780 764 0
-780 779 0
780 -764 -779 0
-781 -778 0
-781 -780 0
781 778 780 0
-782 25 0
-782 776 0
782 -25 -776 0
-783 764 0
-783 782 0
783 -764 -782 0
-784 26 0
-784 776 0
784 -26 -776 0
-785 -764 0
-785 784 0
785 764 -784 0
-786 -783 0
-786 -785 0
786 783 785 0
-787 776 0
-787 786 0
787 -776 -786 0
-788 781 0
-788 -787 0
788 -781 787 0
-789 30 0
-789 133 0
789 -30 -133 0
-790 4 0
-790 11 0
790 -4 -11 0
-791 29 0
-791 132 0
791 -29 -132 0
-792 -790 0
-792 -791 0
792 790 791 0
-793 -789 0
-793 792 0
793 789 -792 0
-794 131 0
-794 -793 0
794 -131 793 0
-795 31 0
-795 -131 0
795 -31 131 0
-796 -621 0
-796 795 0
796 621 -795 0
-797 -622 0
-797 -796 0
797 622 796 0
-798 -794 0
-798 797 0
798 794 -797 0
-799 8 0
-799 -627 0
799 -8 627 0
-800 152 0
-800 799 0
800 -152 -799 0
-801 22 0
-801 157 0
801 -22 -157 0
-802 -8 0
-802 9 0
802 8 -9 0
-803 8 0
-803 -9 0
803 -8 9 0
-804 -802 0
-804 -803 0
804 802 803 0
-805 3 0
-805 804 0
805 -3 -804 0
-806 9 0
-806 156 0
806 -9 -156 0
-807 -805 0
-807 -806 0
807 805 806 0
-808 -801 0
-808 807 0
808 801 -807 0
-809 -149 0
-809 -808 0
809 149 808 0
-810 -8 0
-810 151 0
810 8 -151 0
-811 -809 0
-811 -810 0
811 809 810 0
-812 -800 0
-812 811 0
812 800 -811 0
-813 23 0
-813 -812 0
813 -23 812 0
-814 -798 0
-814 813 0
814 798 -813 0
-815 24 0
-815 -812 0
815 -24 812 0
-816 798 0
-816 815 0
816 -798 -815 0
-817 -814 0
-817 -816 0
817 814 816 0
-818 25 0
-818 812 0
818 -25 -812 0
-819 798 0
-819 818 0
819 -798 -818 0
-820 26 0
-820 812 0
820 -26 -812 0
-821 -798 0
-821 820 0
821 798 -820 0
-822 -819 0
-822 -821 0
822 819 821 0
-823 812 0
-823 822 0
823 -812 -822 0
-824 817 0
-824 -823 0
824 -817 823 0
-825 -643 0
-825 824 0
825 643 -824 0
-826 734 0
-826 825 0
826 -734 -825 0
-827 788 0
-827 826 0
827 -788 -826 0
-828 788 0
-828 824 0
828 -788 -824 0
-829 -727 0
-829 828 0
829 727 -828 0
-830 788 0
-830 -817 0
830 -788 817 0
-831 781 0
-831 -830 0
831 -781 830 0
-832 -829 0
-832 831 0
832 829 -831 0
-833 -827 0
-833 832 0
833 827 -832 0
-834 734 0
-834 828 0
834 -734 -828 0
-835 650 0
-835 834 0
835 -650 -834 0
-836 336 0
-836 835 0
836 -336 -835 0
-837 833 0
-837 -836 0
837 -833 836 0
-838 -350 0
-838 835 0
838 350 -835 0
-839 47 0
-839 838 0
839 -47 -838 0
-840 837 0
-840 839 0
840 -837 -839 0
-841 837 0
-841 -840 0
841 -837 840 0
-842 -753 0
-842 841 0
842 753 -841 0
-843 753 0
-843 -841 0
843 -753 841 0
-844 -842 0
-844 -843 0
844 842 843 0
-845 53 0
-845 844 0
845 -53 -844 0
-846 -754 0
-846 -845 0
846 754 845 0
-847 -742 0
-847 846 0
847 742 -846 0
-848 668 0
-848 -847 0
848 -668 847 0
-849 -668 0
-849 847 0
849 668 -847 0
-850 -848 0
-850 -849 0
850 848 849 0
-851 -8 0
-851 580 0
851 8 -580 0
-852 17 0
-852 84 0
852 -17 -84 0
-853 18 0
-853 87 0
853 -18 -87 0
-854 19 0
-854 89 0
854 -19 -89 0
-855 20 0
-855 91 0
855 -20 -91 0
-856 21 0
-856 95 0
856 -21 -95 0
-857 22 0
-857 98 0
857 -22 -98 0
-858 16 0
-858 100 0
858 -16 -100 0
-859 7 0
-859 102 0
859 -7 -102 0
-860 -858 0
-860 -859 0
860 858 859 0
-861 -857 0
-861 860 0
861 857 -860 0
-862 -856 0
-862 861 0
862 856 -861 0
-863 -855 0
-863 862 0
863 855 -862 0
-864 -854 0
-864 863 0
864 854 -863 0
-865 -853 0
-865 864 0
865 853 -864 0
-866 -852 0
-866 865 0
866 852 -865 0
-867 -4 0
-867 866 0
867 4 -866 0
-868 39 0
-868 84 0
868 -39 -84 0
-869 14 0
-869 87 0
869 -14 -87 0
-870 13 0
-870 89 0
870 -13 -89 0
-871 12 0
-871 91 0
871 -12 -91 0
-872 40 0
-872 100 0
872 -40 -100 0
-873 -589 0
-873 -872 0
873 589 872 0
-874 -397 0
-874 873 0
874 397 -873 0
-875 -467 0
-875 874 0
875 467 -874 0
-876 -871 0
-876 875 0
876 871 -875 0
-877 -870 0
-877 876 0
877 870 -876 0
-878 -869 0
-878 877 0
878 869 -877 0
-879 -868 0
-879 878 0
879 868 -878 0
-880 4 0
-880 879 0
880 -4 -879 0
-881 -867 0
-881 -880 0
881 867 880 0
-882 60 0
-882 -881 0
882 -60 881 0
-883 183 0
-883 -812 0
883 -183 812 0
-884 -824 0
-884 883 0
884 824 -883 0
-885 824 0
-885 -883 0
885 -824 883 0
-886 -884 0
-886 -885 0
886 884 885 0
-887 579 0
-887 886 0
887 -579 -886 0
-888 -882 0
-888 -887 0
888 882 887 0
-889 -851 0
-889 888 0
889 851 -888 0
-890 57 0
-890 889 0
890 -57 -889 0
-891 -738 0
-891 743 0
891 738 -743 0
-892 47 0
-892 891 0
892 -47 -891 0
-893 -654 0
-893 -738 0
893 654 738 0
-894 336 0
-894 893 0
894 -336 -893 0
-895 -184 0
-895 -727 0
895 184 727 0
-896 -738 0
-896 745 0
896 738 -745 0
-897 -895 0
-897 -896 0
897 895 896 0
-898 -894 0
-898 897 0
898 894 -897 0
-899 -886 0
-899 898 0
899 886 -898 0
-900 886 0
-900 -898 0
900 -886 898 0
-901 -899 0
-901 -900 0
901 899 900 0
-902 892 0
-902 901 0
902 -892 -901 0
-903 -892 0
-903 -901 0
903 892 901 0
-904 -902 0
-904 -903 0
904 902 903 0
-905 -56 0
-905 -904 0
905 56 904 0
-906 842 0
-906 904 0
906 -842 -904 0
-907 -842 0
-907 -904 0
907 842 904 0
-908 -906 0
-908 -907 0
908 906 907 0
-909 53 0
-909 -908 0
909 -53 908 0
-910 -905 0
-910 -909 0
910 905 909 0
-911 -890 0
-911 910 0
911 890 -910 0
-912 -7 0
-912 580 0
912 7 -580 0
-913 -4 0
-913 -5 0
913 4 5 0
-914 4 0
-914 -5 0
914 -4 5 0
-915 -913 0
-915 -914 0
915 913 914 0
-916 -7 0
-916 915 0
916 7 -915 0
-917 16 0
-917 84 0
917 -16 -84 0
-918 17 0
-918 87 0
918 -17 -87 0
-919 18 0
-919 89 0
919 -18 -89 0
-920 19 0
-920 91 0
920 -19 -91 0
-921 20 0
-921 95 0
921 -20 -95 0
-922 21 0
-922 98 0
922 -21 -98 0
-923 15 0
-923 100 0
923 -15 -100 0
-924 22 0
-924 102 0
924 -22 -102 0
-925 -923 0
-925 -924 0
925 923 924 0
-926 -922 0
-926 925 0
926 922 -925 0
-927 -921 0
-927 926 0
927 921 -926 0
-928 -920 0
-928 927 0
928 920 -927 0
-929 -919 0
-929 928 0
929 919 -928 0
-930 -918 0
-930 929 0
930 918 -929 0
-931 -917 0
-931 930 0
931 917 -930 0
-932 913 0
-932 931 0
932 -913 -931 0
-933 14 0
-933 84 0
933 -14 -84 0
-934 13 0
-934 87 0
934 -13 -87 0
-935 12 0
-935 89 0
935 -12 -89 0
-936 11 0
-936 91 0
936 -11 -91 0
-937 39 0
-937 100 0
937 -39 -100 0
-938 -676 0
-938 -937 0
938 676 937 0
-939 -99 0
-939 938 0
939 99 -938 0
-940 -534 0
-940 939 0
940 534 -939 0
-941 -936 0
-941 940 0
941 936 -940 0
-942 -935 0
-942 941 0
942 935 -941 0
-943 -934 0
-943 942 0
943 934 -942 0
-944 -933 0
-944 943 0
944 933 -943 0
-945 914 0
-945 944 0
945 -914 -944 0
-946 -932 0
-946 -945 0
946 932 945 0
-947 -916 0
-947 946 0
947 916 -946 0
-948 60 0
-948 -947 0
948 -60 947 0
-949 183 0
-949 -776 0
949 -183 776 0
-950 -788 0
-950 949 0
950 788 -949 0
-951 788 0
-951 -949 0
951 -788 949 0
-952 -950 0
-952 -951 0
952 950 951 0
-953 579 0
-953 952 0
953 -579 -952 0
-954 -948 0
-954 -953 0
954 948 953 0
-955 -912 0
-955 954 0
955 912 -954 0
-956 57 0
-956 955 0
956 -57 -955 0
-957 -350 0
-957 -886 0
957 350 886 0
-958 -738 0
-958 957 0
958 738 -957 0
-959 -654 0
-959 958 0
959 654 -958 0
-960 47 0
-960 959 0
960 -47 -959 0
-961 -738 0
-961 -886 0
961 738 886 0
-962 -654 0
-962 961 0
962 654 -961 0
-963 336 0
-963 962 0
963 -336 -962 0
-964 745 0
-964 961 0
964 -745 -961 0
-965 -183 0
-965 -817 0
965 183 817 0
-966 -886 0
-966 895 0
966 886 -895 0
-967 -965 0
-967 -966 0
967 965 966 0
-968 -964 0
-968 967 0
968 964 -967 0
-969 -963 0
-969 968 0
969 963 -968 0
-970 -952 0
-970 969 0
970 952 -969 0
-971 952 0
-971 -969 0
971 -952 969 0
-972 -970 0
-972 -971 0
972 970 971 0
-973 960 0
-973 972 0
973 -960 -972 0
-974 -960 0
-974 -972 0
974 960 972 0
-975 -973 0
-975 -974 0
975 973 974 0
-976 -56 0
-976 -975 0
976 56 975 0
-977 -841 0
-977 -975 0
977 841 975 0
-978 -753 0
-978 -904 0
978 753 904 0
-979 -975 0
-979 978 0
979 975 -978 0
-980 841 0
-980 979 0
980 -841 -979 0
-981 -977 0
-981 -980 0
981 977 980 0
-982 53 0
-982 -981 0
982 -53 981 0
-983 -976 0
-983 -982 0
983 976 982 0
-984 -956 0
-984 983 0
984 956 -983 0
-985 911 0
-985 -984 0
985 -911 984 0
-986 -911 0
-986 984 0
986 911 -984 0
-987 -985 0
-987 -986 0
987 985 986 0
-988 850 0
-988 -987 0
988 -850 987 0
-989 -850 0
-989 987 0
989 850 -987 0
-990 -988 0
-990 -989 0
990 988 989 0
-991 578 0
-991 -990 0
991 -578 990 0
-992 -578 0
-992 990 0
992 578 -990 0
-993 -991 0
-993 -992 0
993 991 992 0
-994 27 0
-994 -48 0
994 -27 48 0
-995 50 0
-995 994 0
995 -50 -994 0
-996 -911 0
-996 -994 0
996 911 994 0
-997 -984 0
-997 -994 0
997 984 994 0
-998 996 0
-998 -997 0
998 -996 997 0
-999 -996 0
-999 997 0
999 996 -997 0
-1000 -998 0
-1000 -999 0
1000 998 999 0
-1001 850 0
-1001 1000 0
1001 -850 -1000 0
-1002 995 0
-1002 1001 0
1002 -995 -1001 0
-1003 850 0
-1003 -1000 0
1003 -850 1000 0
-1004 -995 0
-1004 1003 0
1004 995 -1003 0
-1005 -850 0
-1005 -1000 0
1005 850 1000 0
-1006 995 0
-1006 1005 0
1006 -995 -1005 0
-1007 -850 0
-1007 1000 0
1007 850 -1000 0
-1008 -995 0
-1008 1007 0
1008 995 -1007 0
-1009 -1006 0
-1009 -1008 0
1009 1006 1008 0
-1010 -1004 0
-1010 1009 0
1010 1004 -1009 0
-1011 -1002 0
-1011 1010 0
1011 1002 -1010 0
-1012 578 0
-1012 1011 0
1012 -578 -1011 0
-1013 -578 0
-1013 -1011 0
1013 578 1011 0
-1014 -1012 0
-1014 -1013 0
1014 1012 1013 0
-1015 506 0
-1015 572 0
1015 -506 -572 0
-1016 437 0
-1016 1015 0
1016 -437 -1015 0
-1017 377 0
-1017 1016 0
1017 -377 -1016 0
-1018 668 0
-1018 847 0
1018 -668 -847 0
-1019 911 0
-1019 1018 0
1019 -911 -1018 0
-1020 984 0
-1020 1019 0
1020 -984 -1019 0
-1021 1017 0
-1021 1020 0
1021 -1017 -1020 0
-1022 911 0
-1022 984 0
1022 -911 -984 0
-1023 994 0
-1023 1022 0
1023 -994 -1022 0
-1024 -1021 0
-1024 -1023 0
1024 1021 1023 0
-1025 27 0
-1025 1024 0
1025 -27 -1024 0
-1026 -838 0
-1026 959 0
1026 838 -959 0
-1027 838 0
-1027 -959 0
1027 -838 959 0
-1028 -1026 0
-1028 -1027 0
1028 1026 1027 0
-1029 47 0
-1029 -1028 0
1029 -47 1028 0
-1030 -837 0
-1030 969 0
1030 837 -969 0
-1031 837 0
-1031 -969 0
1031 -837 969 0
-1032 -1030 0
-1032 -1031 0
1032 1030 1031 0
-1033 1029 0
-1033 1032 0
1033 -1029 -1032 0
-1034 -1029 0
-1034 -1032 0
1034 1029 1032 0
-1035 -1033 0
-1035 -1034 0
1035 1033 1034 0
-1036 3 0
-1036 58 0
1036 -3 -58 0
-1037 -51 0
-1037 -1036 0
1037 51 1036 0
-1038 -1035 0
-1038 1037 0
1038 1035 -1037 0
-1039 10 0
-1039 -804 0
1039 -10 804 0
-1040 7 0
-1040 1039 0
1040 -7 -1039 0
-1041 -7 0
-1041 9 0
1041 7 -9 0
-1042 -1040 0
-1042 -1041 0
1042 1040 1041 0
-1043 51 0
-1043 -1042 0
1043 -51 1042 0
-1044 14 0
-1044 -285 0
1044 -14 285 0
-1045 1036 0
-1045 1044 0
1045 -1036 -1044 0
-1046 -1043 0
-1046 -1045 0
1046 1043 1045 0
-1047 -1038 0
-1047 1046 0
1047 1038 -1046 0
-1048 1 0
-1048 -53 0
1048 -1 53 0
-1049 518 0
-1049 1048 0
1049 -518 -1048 0
-1050 53 0
-1050 453 0
1050 -53 -453 0
-1051 -1 0
-1051 -353 0
1051 1 353 0
-1052 -1050 0
-1052 -1051 0
1052 1050 1051 0
-1053 -1049 0
-1053 1052 0
1053 1049 -1052 0
-1054 362 0
-1054 364 0
1054 -362 -364 0
-1055 364 0
-1055 -1054 0
1055 -364 1054 0
-1056 -335 0
-1056 835 0
1056 335 -835 0
-1057 833 0
-1057 -1056 0
1057 -833 1056 0
-1058 348 0
-1058 835 0
1058 -348 -835 0
-1059 -387 0
-1059 450 0
1059 387 -450 0
-1060 387 0
-1060 -450 0
1060 -387 450 0
-1061 -1059 0
-1061 -1060 0
1061 1059 1060 0
-1062 -76 0
-1062 516 0
1062 76 -516 0
-1063 76 0
-1063 -516 0
1063 -76 516 0
-1064 -1062 0
-1064 -1063 0
1064 1062 1063 0
-1065 10 0
-1065 33 0
1065 -10 -33 0
-1066 9 0
-1066 32 0
1066 -9 -32 0
-1067 7 0
-1067 30 0
1067 -7 -30 0
-1068 8 0
-1068 31 0
1068 -8 -31 0
-1069 -1067 0
-1069 -1068 0
1069 1067 1068 0
-1070 -1066 0
-1070 1069 0
1070 1066 -1069 0
-1071 -1065 0
-1071 1070 0
1071 1065 -1070 0
-1072 14 0
-1072 37 0
1072 -14 -37 0
-1073 13 0
-1073 36 0
1073 -13 -36 0
-1074 11 0
-1074 34 0
1074 -11 -34 0
-1075 12 0
-1075 35 0
1075 -12 -35 0
-1076 -1074 0
-1076 -1075 0
1076 1074 1075 0
-1077 -1073 0
-1077 1076 0
1077 1073 -1076 0
-1078 -1072 0
-1078 1077 0
1078 1072 -1077 0
-1079 1071 0
-1079 1078 0
1079 -1071 -1078 0
-1080 -52 0
-1080 -1036 0
1080 52 1036 0
-1081 -1079 0
-1081 1080 0
1081 1079 -1080 0
-1082 453 0
-1082 1036 0
1082 -453 -1036 0
-1083 -35 0
-1083 -36 0
1083 35 36 0
-1084 34 0
-1084 -1083 0
1084 -34 1083 0
-1085 52 0
-1085 1084 0
1085 -52 -1084 0
-1086 -1082 0
-1086 -1085 0
1086 1082 1085 0
-1087 -1081 0
-1087 1086 0
1087 1081 -1086 0
-1088 -10 0
-1088 768 0
1088 10 -768 0
-1089 458 0
-1089 -1088 0
1089 -458 1088 0
-1090 -1087 0
-1090 1089 0
1090 1087 -1089 0
-1091 -1064 0
-1091 1090 0
1091 1064 -1090 0
-1092 1061 0
-1092 1091 0
1092 -1061 -1091 0
-1093 -1058 0
-1093 1092 0
1093 1058 -1092 0
-1094 1057 0
-1094 1093 0
1094 -1057 -1093 0
-1095 1055 0
-1095 1094 0
1095 -1055 -1094 0
-1096 1053 0
-1096 1095 0
1096 -1053 -1095 0
-1097 506 0
-1097 1096 0
1097 -506 -1096 0
-1098 668 0
-1098 1097 0
1098 -668 -1097 0
-1099 1047 0
-1099 1098 0
1099 -1047 -1098 0
-1100 377 0
-1100 1099 0
1100 -377 -1099 0
-1101 572 0
-1101 1100 0
1101 -572 -1100 0
-1102 437 0
-1102 1101 0
1102 -437 -1101 0
-1103 911 0
-1103 1102 0
1103 -911 -1102 0
-1104 984 0
-1104 1103 0
1104 -984 -1103 0
-1105 847 0
-1105 1104 0
1105 -847 -1104 0
-1106 1021 0
-1106 1105 0
1106 -1021 -1105 0
-1107 1025 0
-1107 1106 0
1107 -1025 -1106 0
-1108 1014 0
-1108 1107 0
1108 -1014 -1107 0
-1109 -993 0
-1109 1108 0
1109 993 -1108 0
-1109 0
